; benchmark generated from python API
(set-info :status unknown)
(declare-fun R_E1_V4 () Bool)
(declare-fun W_S1_V4 () Bool)
(declare-fun R_E1_V5 () Bool)
(declare-fun W_S1_V5 () Bool)
(declare-fun W_S2_V5 () Bool)
(declare-fun W_S2_V2 () Bool)
(declare-fun W_S2_V3 () Bool)
(declare-fun W_S2_V1 () Bool)
(declare-fun W_S1_V1 () Bool)
(declare-fun R_S2_V4 () Bool)
(declare-fun R_S2_V5 () Bool)
(declare-fun R_S2_V2 () Bool)
(declare-fun R_S2_V3 () Bool)
(declare-fun R_S2_V1 () Bool)
(declare-fun R_S1_V1 () Bool)
(declare-fun R_E1_V2 () Bool)
(declare-fun DISJ_W_S2_R_E1 () Bool)
(declare-fun DISJ_W_S2_R_S2 () Bool)
(declare-fun R_S1_V4 () Bool)
(declare-fun R_S1_V5 () Bool)
(declare-fun R_S1_V2 () Bool)
(declare-fun R_S1_V3 () Bool)
(declare-fun DISJ_W_S2_R_S1 () Bool)
(declare-fun DISJ_W_S1_W_S2 () Bool)
(declare-fun R_E1_V3 () Bool)
(declare-fun DISJ_W_S1_R_S2 () Bool)
(declare-fun DISJ_W_S1_R_S1 () Bool)
(declare-fun W_S2_V4 () Bool)
(declare-fun W_S1_V3 () Bool)
(declare-fun W_S1_V2 () Bool)
(declare-fun R_E1_V1 () Bool)
(declare-fun DISJ_W_S1_R_E1 () Bool)
(assert
 (let (($x2893 (not (and W_S1_V4 R_E1_V4))))
 (let (($x3710 (not (and W_S1_V5 R_E1_V5))))
 (let (($x1124 (forall ((V3_0 Int) )(forall ((V2_0 Int) )(forall ((V5_0 Int) )(forall ((V4_0 Int) )(forall ((MW_S1_V1 Bool) )(forall ((MW_S1_V3 Bool) )(forall ((MW_S1_V2 Bool) )(forall ((MW_S1_V5 Bool) )(forall ((MW_S1_V4 Bool) )(forall ((MW_S2_V1 Bool) )(forall ((MW_S2_V3 Bool) )(forall ((MW_S2_V2 Bool) )(forall ((MW_S2_V5 Bool) )(forall ((MW_S2_V4 Bool) )(forall ((S1_V1_!1338 Int) )(forall ((S1_V1_!1349 Int) )(forall ((S2_V5_!1346 Int) )(forall ((S2_V5_!1358 Int) )(forall ((S1_V3_!1339 Int) )(forall ((S1_V3_!1350 Int) )(forall ((S1_V2_!1340 Int) )(forall ((S1_V2_!1351 Int) )(forall ((E1_!1337 Int) )(forall ((E1_!1348 Int) )(forall ((E1_!1354 Int) )(forall ((S2_V4_!1347 Int) )(forall ((S2_V4_!1359 Int) )(forall ((S1_V5_!1341 Int) )(forall ((S1_V5_!1352 Int) )(forall ((S2_V1_!1343 Int) )(forall ((S2_V1_!1355 Int) )(forall ((S1_V4_!1342 Int) )(forall ((S1_V4_!1353 Int) )(forall ((S2_V2_!1345 Int) )(forall ((S2_V2_!1357 Int) )(forall ((S2_V3_!1344 Int) )(forall ((S2_V3_!1356 Int) )(let (($x3281 (= (ite MW_S2_V4 S2_V4_!1347 (ite MW_S1_V4 S1_V4_!1342 V4_0)) (ite MW_S2_V4 S2_V4_!1359 (ite MW_S1_V4 S1_V4_!1353 V4_0)))))
 (let (($x1770 (= (ite MW_S2_V5 S2_V5_!1346 (ite MW_S1_V5 S1_V5_!1341 V5_0)) (ite MW_S2_V5 S2_V5_!1358 (ite MW_S1_V5 S1_V5_!1352 V5_0)))))
 (let ((?x1517 (ite MW_S1_V2 S1_V2_!1351 V2_0)))
 (let ((?x744 (ite MW_S2_V2 S2_V2_!1357 ?x1517)))
 (let ((?x1659 (ite MW_S1_V2 S1_V2_!1340 V2_0)))
 (let ((?x2252 (ite MW_S2_V2 S2_V2_!1345 ?x1659)))
 (let (($x5026 (= (ite MW_S2_V3 S2_V3_!1344 (ite MW_S1_V3 S1_V3_!1339 V3_0)) (ite MW_S2_V3 S2_V3_!1356 (ite MW_S1_V3 S1_V3_!1350 V3_0)))))
 (let (($x1487 (and (= (ite MW_S2_V1 S2_V1_!1343 (ite MW_S1_V1 S1_V1_!1338 E1_!1337)) (ite MW_S2_V1 S2_V1_!1355 E1_!1354)) $x5026 (= ?x2252 ?x744) $x1770 $x3281)))
 (let (($x899 (and (not (<= V2_0 E1_!1337)) (>= (ite MW_S2_V1 S2_V1_!1343 (ite MW_S1_V1 S1_V1_!1338 E1_!1337)) (+ (- 1) ?x2252)) (not (<= V2_0 E1_!1348)) (>= (ite MW_S1_V1 S1_V1_!1349 E1_!1348) (+ (- 1) ?x1517)) (not (<= ?x1517 E1_!1354)) (>= (ite MW_S2_V1 S2_V1_!1355 E1_!1354) (+ (- 1) ?x744)))))
 (let (($x4718 (= S2_V3_!1356 S2_V3_!1344)))
 (let (($x2242 (and (or (not R_S2_V1) (= E1_!1354 (ite MW_S1_V1 S1_V1_!1338 E1_!1337))) (or (not R_S2_V3) (= (ite MW_S1_V3 S1_V3_!1350 V3_0) (ite MW_S1_V3 S1_V3_!1339 V3_0))) (or (not R_S2_V2) (= ?x1517 ?x1659)) (or (not R_S2_V5) (= (ite MW_S1_V5 S1_V5_!1352 V5_0) (ite MW_S1_V5 S1_V5_!1341 V5_0))) (or (not R_S2_V4) (= (ite MW_S1_V4 S1_V4_!1353 V4_0) (ite MW_S1_V4 S1_V4_!1342 V4_0))))))
 (let (($x1333 (not $x2242)))
 (let (($x358 (= S2_V2_!1345 S2_V2_!1357)))
 (let (($x2950 (and (or (not R_S2_V1) (= (ite MW_S1_V1 S1_V1_!1338 E1_!1337) E1_!1354)) (or (not R_S2_V3) (= (ite MW_S1_V3 S1_V3_!1339 V3_0) (ite MW_S1_V3 S1_V3_!1350 V3_0))) (or (not R_S2_V2) (= ?x1659 ?x1517)) (or (not R_S2_V5) (= (ite MW_S1_V5 S1_V5_!1341 V5_0) (ite MW_S1_V5 S1_V5_!1352 V5_0))) (or (not R_S2_V4) (= (ite MW_S1_V4 S1_V4_!1342 V4_0) (ite MW_S1_V4 S1_V4_!1353 V4_0))))))
 (let (($x945 (not $x2950)))
 (let (($x2363 (and (or (not R_E1_V2) (= V2_0 ?x1517)) (or (not R_E1_V5) (= V5_0 (ite MW_S1_V5 S1_V5_!1352 V5_0))) (or (not R_E1_V4) (= V4_0 (ite MW_S1_V4 S1_V4_!1353 V4_0))))))
 (let (($x4878 (not $x2363)))
 (let (($x3620 (= E1_!1337 E1_!1348)))
 (let (($x433 (and (or (not (or (not R_S1_V1) $x3620)) (= S1_V1_!1338 S1_V1_!1349)) (or $x1333 (= S2_V5_!1358 S2_V5_!1346)) (or (not (or (not R_S1_V1) $x3620)) (= S1_V3_!1339 S1_V3_!1350)) (or (not (or (not R_S1_V1) $x3620)) (= S1_V2_!1340 S1_V2_!1351)) $x3620 (or $x4878 (= E1_!1337 E1_!1354)) (or $x4878 (= E1_!1348 E1_!1354)) (or $x945 (= S2_V4_!1347 S2_V4_!1359)) (or (not (or (not R_S1_V1) $x3620)) (= S1_V5_!1341 S1_V5_!1352)) (or $x1333 (= S2_V1_!1355 S2_V1_!1343)) (or (not (or (not R_S1_V1) (= E1_!1348 E1_!1337))) (= S1_V4_!1353 S1_V4_!1342)) (or $x945 $x358) (or $x1333 $x4718) (or (not MW_S1_V1) W_S1_V1) (not MW_S1_V2) (or (not MW_S1_V5) W_S1_V5) (or (not MW_S1_V4) W_S1_V4) (or (not MW_S2_V1) W_S2_V1) (or (not MW_S2_V3) W_S2_V3) (or (not MW_S2_V2) W_S2_V2) (or (not MW_S2_V5) W_S2_V5))))
 (or (not $x433) (not $x899) $x1487)))))))))))))))))))))
 )
 )
 )
 )
 )
 )
 )
 )
 )
 )
 )
 )
 )
 )
 )
 )
 )
 )
 )
 )
 )
 )
 )
 )
 )
 )
 )
 )
 )
 )
 )
 )
 )
 )
 )
 )
 ))
 (let (($x1008 (not (or (and W_S2_V2 R_E1_V2) (and W_S2_V5 R_E1_V5) R_E1_V4))))
 (let (($x3752 (= DISJ_W_S2_R_E1 $x1008)))
 (let (($x4563 (and W_S2_V5 R_S2_V5)))
 (let (($x363 (and W_S2_V2 R_S2_V2)))
 (let (($x3367 (and W_S2_V3 R_S2_V3)))
 (let (($x3637 (and W_S2_V1 R_S2_V1)))
 (let (($x114 (= DISJ_W_S2_R_S2 (not (or $x3637 $x3367 $x363 $x4563 R_S2_V4)))))
 (let (($x896 (and W_S2_V5 R_S1_V5)))
 (let (($x2063 (and W_S2_V2 R_S1_V2)))
 (let (($x3856 (and W_S2_V3 R_S1_V3)))
 (let (($x5208 (and W_S2_V1 R_S1_V1)))
 (let (($x1090 (= DISJ_W_S2_R_S1 (not (or $x5208 $x3856 $x2063 $x896 R_S1_V4)))))
 (let (($x3451 (and W_S1_V5 W_S2_V5)))
 (let (($x15 (and W_S1_V1 W_S2_V1)))
 (let (($x541 (= DISJ_W_S1_W_S2 (not (or $x15 W_S2_V3 $x3451 W_S1_V4)))))
 (let (($x3283 (not R_E1_V3)))
 (let (($x1213 (and W_S1_V4 R_S2_V4)))
 (let (($x4766 (and W_S1_V5 R_S2_V5)))
 (let (($x1055 (and W_S1_V1 R_S2_V1)))
 (let (($x4178 (= DISJ_W_S1_R_S2 (not (or $x1055 R_S2_V3 $x4766 $x1213)))))
 (let (($x678 (and W_S1_V4 R_S1_V4)))
 (let (($x2004 (and W_S1_V5 R_S1_V5)))
 (let (($x2040 (and W_S1_V1 R_S1_V1)))
 (let (($x207 (= DISJ_W_S1_R_S1 (not (or $x2040 R_S1_V3 $x2004 $x678)))))
 (let (($x5219 (not W_S1_V2)))
 (let (($x1652 (not R_E1_V1)))
 (and DISJ_W_S1_R_E1 $x1652 $x5219 W_S1_V3 W_S2_V4 $x207 $x4178 $x3283 $x541 $x1090 $x114 $x3752 $x1124 $x3710 $x2893)))))))))))))))))))))))))))))))
(check-sat)
